4 10 6 18 15 17 8 14 11 12 5 9 19 7 3 13 16 0 2 1  
4 10 6 18 15 17 8 14 11 12 5 9 13 2 7 1 0 19 16 3  
4 10 6 18 15 17 8 14 11 12 5 7 2 9 13 1 0 19 16 3  
4 10 6 18 15 17 8 14 11 12 5 9 19 2 13 16 0 1 7 3  
4 10 6 18 15 17 8 14 11 12 5 9 19 7 3 13 16 0 1 2  
4 10 6 18 15 17 8 14 11 12 0 9 19 5 2 3 13 16 1 7  
4 10 6 15 8 17 18 11 14 16 5 9 13 19 12 0 1 7 2 3  
4 10 6 18 15 17 8 14 11 12 5 9 13 7 2 1 0 19 16 3  
4 10 6 18 15 17 8 14 11 12 5 9 19 2 13 16 0 1 7 3  
4 10 6 18 15 17 8 14 11 12 5 9 19 7 2 3 1 0 13 16  
4 10 6 15 8 17 18 11 14 16 5 9 13 19 12 0 1 7 2 3  
4 10 6 18 15 17 8 14 11 12 5 9 19 7 2 1 0 13 16 3  
4 10 6 18 15 17 8 14 11 12 5 9 19 7 1 0 2 13 16 3  
4 10 6 18 15 17 8 14 11 16 5 9 13 19 12 0 1 7 3 2  
4 10 6 18 15 17 8 14 11 12 5 9 19 7 1 0 2 13 16 3  
4 10 6 18 15 17 8 14 11 12 5 9 19 7 2 1 0 13 16 3  
4 10 6 18 15 17 8 14 12 5 11 9 13 7 2 1 0 19 16 3  
4 10 6 18 15 17 8 14 11 12 5 9 19 2 13 16 7 0 1 3  
4 10 6 18 15 17 8 14 11 12 5 9 19 7 1 0 2 13 16 3  
4 10 6 18 15 17 8 14 11 16 5 9 19 3 12 0 1 7 2 13  
4 10 6 18 15 17 8 14 11 12 5 9 19 7 3 13 16 0 2 1  
4 10 6 18 15 17 8 14 11 12 5 9 19 0 1 7 2 13 16 3  
4 10 6 18 15 17 8 14 11 16 5 9 19 3 12 0 1 7 2 13  
4 10 6 18 15 17 8 14 11 12 5 9 19 7 1 0 2 13 16 3  
4 10 6 18 15 17 8 14 11 12 5 9 19 7 2 3 1 0 13 16  
4 10 6 18 15 17 14 11 12 5 2 9 19 7 1 0 3 13 16 8  
4 10 6 15 18 17 14 11 12 5 2 9 19 7 1 0 3 13 16 8  
6 10 4 8 15 17 18 14 11 12 5 9 19 2 13 16 0 1 7 3  
4 10 6 18 15 17 11 14 12 5 7 9 13 2 1 0 19 16 3 8  
